Data path: /scratch/opt/lxu/CFLG/benchmarks/random_B
Instance: r_25_0.2_58.txt
Result path: /scratch/opt/lxu/CFLG/results/random_B
Solver: Gurobi
Time limit: 3600
Formulation: EVFP
Cover: Large
julia --project=. src/main.jl /scratch/opt/lxu/CFLG/benchmarks/random_B r_25_0.2_58.txt /scratch/opt/lxu/CFLG/results/random_B Gurobi 3600 EVFP Large
The latest version of Julia in the `release` channel is 1.11.5+0.x64.linux.gnu. You currently have `1.11.4+0.x64.linux.gnu` installed. Run:

  juliaup update

in your terminal shell to install Julia 1.11.5+0.x64.linux.gnu and update the `release` channel to that version.
/scratch/opt/lxu/CFLG/benchmarks/random_B Gurobi 3600.0 /scratch/opt/lxu/CFLG/results/random_B r_25_0.2_58.txt EVFP Large
/scratch/opt/lxu/CFLG/benchmarks/random_B/r_25_0.2_58.txt

 read graph
data loaded

problem_graph/original graph: node: 25/25 edge: 58/58 dlt: 1.3662485762083236 break_avg_len: 0.6831242881041618 break_max_len: 0.9946460943203358elapsed CPU time: 0.039241 seconds
Set parameter TokenServer to value "solice01.zib.de"
Set parameter Threads to value 1
Set parameter OutputFlag to value 1
Set parameter MIPGap to value 0.0001
Set parameter MIPGapAbs to value 1
Set parameter TimeLimit to value 3599.960759
vertex var

 model loaded

Gurobi Optimizer version 12.0.1 build v12.0.1rc0 (linux64 - "Debian GNU/Linux 12 (bookworm)")

CPU model: Intel(R) Xeon(R) Gold 5122 CPU @ 3.60GHz, instruction set [SSE2|AVX|AVX2|AVX512]
Thread count: 8 physical cores, 16 logical processors, using up to 1 threads

Non-default parameters:
TimeLimit  3599.960759
MIPGapAbs  1
Threads  1

Optimize a model with 4938 rows, 2226 columns and 14214 nonzeros
Model fingerprint: 0x00ae36f3
Variable types: 83 continuous, 2143 integer (2143 binary)
Coefficient statistics:
  Matrix range     [1e-06, 2e+00]
  Objective range  [1e+00, 1e+00]
  Bounds range     [3e-01, 1e+00]
  RHS range        [3e-01, 6e+00]
Found heuristic solution: objective 17.0000000
Presolve removed 952 rows and 22 columns
Presolve time: 0.07s
Presolved: 3986 rows, 2204 columns, 13092 nonzeros
Variable types: 83 continuous, 2121 integer (2121 binary)

Root relaxation: objective 1.500000e+00, 1985 iterations, 0.07 seconds (0.12 work units)

    Nodes    |    Current Node    |     Objective Bounds      |     Work
 Expl Unexpl |  Obj  Depth IntInf | Incumbent    BestBd   Gap | It/Node Time

     0     0    1.50000    0   84   17.00000    1.50000  91.2%     -    0s
H    0     0                       6.0000000    1.50000  75.0%     -    0s
H    0     0                       5.0000000    1.50000  70.0%     -    0s
H    0     0                       4.0000000    1.50000  62.5%     -    0s
     0     0    1.52245    0  302    4.00000    1.52245  61.9%     -    0s
     0     0    1.55983    0  269    4.00000    1.55983  61.0%     -    0s
     0     0    1.73977    0  220    4.00000    1.73977  56.5%     -    0s
     0     0    2.00000    0  176    4.00000    2.00000  50.0%     -    0s
     0     0    2.00000    0  266    4.00000    2.00000  50.0%     -    0s
     0     0    2.00000    0  270    4.00000    2.00000  50.0%     -    0s
     0     0    2.00000    0  205    4.00000    2.00000  50.0%     -    0s
     0     0    2.00000    0  231    4.00000    2.00000  50.0%     -    0s
     0     0    2.00000    0  253    4.00000    2.00000  50.0%     -    0s
     0     0    2.00000    0  252    4.00000    2.00000  50.0%     -    1s
     0     0    2.00000    0  244    4.00000    2.00000  50.0%     -    1s
     0     0    2.00000    0  250    4.00000    2.00000  50.0%     -    1s
     0     0    2.00000    0  280    4.00000    2.00000  50.0%     -    1s
     0     0    2.00000    0  279    4.00000    2.00000  50.0%     -    1s
     0     0    2.00000    0  278    4.00000    2.00000  50.0%     -    1s
     0     0    2.00000    0  270    4.00000    2.00000  50.0%     -    1s
     0     0    2.00000    0  259    4.00000    2.00000  50.0%     -    1s
     0     0    2.00000    0  262    4.00000    2.00000  50.0%     -    1s
     0     0    2.00000    0  272    4.00000    2.00000  50.0%     -    1s
     0     0    2.00000    0  230    4.00000    2.00000  50.0%     -    1s
     0     0    2.00000    0  228    4.00000    2.00000  50.0%     -    1s
     0     0    2.00000    0  241    4.00000    2.00000  50.0%     -    1s
     0     0    2.00000    0  252    4.00000    2.00000  50.0%     -    1s
     0     0    2.00000    0  253    4.00000    2.00000  50.0%     -    1s
     0     0    2.00000    0  263    4.00000    2.00000  50.0%     -    1s
     0     0    2.00000    0  267    4.00000    2.00000  50.0%     -    1s
     0     0    2.00000    0  291    4.00000    2.00000  50.0%     -    1s
     0     0    2.00000    0  318    4.00000    2.00000  50.0%     -    1s
     0     0    2.00000    0  335    4.00000    2.00000  50.0%     -    1s
     0     0    2.00000    0  249    4.00000    2.00000  50.0%     -    1s
     0     0    2.00000    0  292    4.00000    2.00000  50.0%     -    1s
     0     0    2.00000    0  290    4.00000    2.00000  50.0%     -    2s
     0     0    2.00000    0  293    4.00000    2.00000  50.0%     -    2s
     0     0    2.00000    0  303    4.00000    2.00000  50.0%     -    2s
     0     0    2.00000    0  288    4.00000    2.00000  50.0%     -    2s
     0     0    2.00000    0  288    4.00000    2.00000  50.0%     -    2s
     0     0    2.00000    0  288    4.00000    2.00000  50.0%     -    2s
     0     0    2.00000    0  290    4.00000    2.00000  50.0%     -    2s
     0     0    2.00000    0  277    4.00000    2.00000  50.0%     -    2s
     0     2    2.00000    0  277    4.00000    2.00000  50.0%     -    2s
   331   232    2.15348    4  180    4.00000    2.00000  50.0%   136    5s
   666   429    2.35128   21  211    4.00000    2.06535  48.4%   115   10s
   680   438    2.56401   13  306    4.00000    2.06535  48.4%   113   15s
   690   445    2.96444   30  258    4.00000    2.06535  48.4%   111   20s
   707   456    3.00000   17  385    4.00000    2.06535  48.4%   108   25s
   727   470    3.00000   21   73    4.00000    2.06651  48.3%   184   30s
   809   492    2.50000   30   89    4.00000    2.06651  48.3%   210   35s
   937   494    2.36835   27  153    4.00000    2.15397  46.2%   220   40s
  1065   509    2.57143   39  200    4.00000    2.22906  44.3%   224   45s
  1242   508    3.00000   20  113    4.00000    2.33358  41.7%   224   50s
  1458   499     cutoff   20         4.00000    2.44947  38.8%   210   55s
  1679   458    3.00000   35   87    4.00000    2.58872  35.3%   202   60s
  1995   372    3.00000   23   37    4.00000    2.70781  32.3%   188   65s
  2255   315     cutoff   34         4.00000    2.88855  27.8%   181   70s

Cutting planes:
  Cover: 65
  Implied bound: 17
  Clique: 13
  MIR: 23
  StrongCG: 1
  Flow cover: 44
  GUB cover: 36
  Zero half: 17
  RLT: 5
  Relax-and-lift: 40
  BQP: 1

Explored 2385 nodes (432784 simplex iterations) in 71.36 seconds (85.28 work units)
Thread count was 1 (of 16 available processors)

Solution count 6: 4 4 5 ... 17

Optimal solution found (tolerance 1.00e-04)
Best objective 4.000000000000e+00, best bound 3.000000000000e+00, gap 25.0000%

User-callback calls 21965, time in user-callback 0.03 sec
Stat(MathOptInterface.OPTIMAL, 4.0, 3.0000000000000004, 0.2499999999999999, 0.0, 0.039241, 71.36145520210266, 2385, Main.CFLG.EVFP, "", #undef)
